benchmarks_CP/INST_49x49/50/inst49x49_50_10.dzn
S=7;
start=[|
28,	16,	20,	45,	-1,	42,	4,	-1,	33,	-1,	-1,	30,	1,	-1,	-1,	-1,	-1,	25,	21,	3,	40,	-1,	18,	14,	27,	-1,	-1,	9,	-1,	17,	19,	-1,	26,	32,	2,	37,	46,	-1,	-1,	39,	-1,	35,	22,	-1,	8,	47,	-1,	23,	43|
47,	-1,	-1,	-1,	43,	-1,	11,	21,	40,	39,	16,	18,	32,	3,	-1,	1,	8,	19,	34,	20,	-1,	-1,	-1,	49,	-1,	-1,	-1,	-1,	-1,	30,	9,	-1,	-1,	-1,	46,	-1,	28,	15,	-1,	4,	29,	-1,	36,	-1,	48,	-1,	35,	-1,	38|
-1,	19,	15,	8,	-1,	6,	-1,	-1,	-1,	-1,	22,	-1,	4,	20,	29,	23,	41,	-1,	33,	-1,	17,	-1,	-1,	-1,	-1,	-1,	40,	31,	-1,	-1,	27,	-1,	37,	48,	11,	-1,	3,	-1,	30,	42,	-1,	-1,	-1,	49,	-1,	46,	-1,	-1,	9|
-1,	-1,	-1,	-1,	-1,	3,	36,	-1,	-1,	42,	-1,	7,	14,	2,	-1,	30,	35,	49,	26,	16,	38,	47,	43,	-1,	-1,	-1,	-1,	-1,	8,	-1,	-1,	-1,	23,	-1,	-1,	12,	31,	-1,	9,	22,	-1,	41,	45,	19,	-1,	-1,	-1,	-1,	-1|
-1,	-1,	31,	-1,	23,	49,	-1,	-1,	8,	-1,	41,	38,	45,	28,	43,	22,	15,	-1,	-1,	-1,	-1,	-1,	30,	-1,	-1,	35,	-1,	-1,	-1,	-1,	39,	44,	16,	24,	-1,	-1,	10,	-1,	-1,	-1,	20,	21,	27,	33,	-1,	-1,	3,	25,	-1|
48,	17,	32,	2,	-1,	9,	-1,	-1,	-1,	31,	26,	12,	-1,	47,	45,	-1,	46,	-1,	-1,	-1,	11,	42,	28,	-1,	-1,	-1,	-1,	33,	-1,	21,	-1,	-1,	-1,	34,	20,	19,	8,	-1,	-1,	1,	-1,	36,	-1,	-1,	41,	-1,	30,	40,	10|
-1,	-1,	-1,	-1,	-1,	-1,	-1,	-1,	-1,	-1,	5,	-1,	-1,	15,	47,	14,	27,	9,	-1,	-1,	31,	-1,	-1,	-1,	46,	22,	4,	-1,	-1,	36,	29,	49,	28,	-1,	42,	45,	-1,	-1,	-1,	16,	13,	18,	-1,	-1,	-1,	32,	-1,	12,	-1|
23,	-1,	37,	-1,	8,	-1,	24,	38,	-1,	49,	39,	26,	-1,	13,	-1,	33,	-1,	5,	-1,	-1,	-1,	-1,	27,	-1,	20,	30,	28,	-1,	-1,	29,	-1,	-1,	-1,	-1,	-1,	7,	-1,	-1,	19,	-1,	42,	43,	11,	32,	-1,	-1,	12,	10,	16|
49,	-1,	30,	-1,	17,	1,	46,	8,	-1,	7,	-1,	-1,	-1,	31,	2,	-1,	-1,	38,	-1,	21,	20,	11,	-1,	47,	34,	26,	-1,	37,	13,	43,	-1,	24,	-1,	-1,	3,	4,	29,	-1,	-1,	-1,	-1,	22,	-1,	9,	-1,	44,	23,	-1,	33|
3,	21,	-1,	-1,	-1,	11,	-1,	5,	-1,	-1,	30,	-1,	16,	24,	31,	8,	-1,	42,	-1,	4,	-1,	2,	-1,	10,	-1,	-1,	-1,	39,	-1,	28,	-1,	23,	-1,	-1,	-1,	35,	45,	-1,	-1,	-1,	36,	-1,	26,	27,	-1,	1,	29,	-1,	13|
-1,	-1,	-1,	31,	38,	14,	-1,	25,	9,	-1,	-1,	-1,	44,	34,	36,	24,	10,	-1,	11,	-1,	-1,	43,	-1,	7,	17,	40,	13,	-1,	-1,	-1,	-1,	-1,	-1,	27,	16,	48,	-1,	12,	-1,	37,	-1,	8,	28,	4,	-1,	41,	-1,	47,	-1|
-1,	-1,	19,	-1,	-1,	16,	6,	-1,	-1,	28,	-1,	-1,	42,	29,	-1,	-1,	-1,	-1,	-1,	25,	-1,	-1,	-1,	-1,	-1,	-1,	-1,	-1,	-1,	1,	-1,	-1,	-1,	8,	-1,	-1,	20,	-1,	-1,	-1,	-1,	-1,	-1,	43,	-1,	2,	34,	-1,	-1|
26,	-1,	13,	28,	-1,	18,	-1,	15,	-1,	-1,	46,	-1,	-1,	-1,	37,	-1,	43,	39,	6,	-1,	-1,	45,	35,	-1,	-1,	-1,	-1,	-1,	21,	-1,	-1,	40,	-1,	2,	-1,	-1,	-1,	-1,	-1,	41,	-1,	-1,	30,	-1,	-1,	-1,	31,	-1,	-1|
39,	25,	-1,	36,	-1,	10,	-1,	22,	-1,	1,	-1,	4,	2,	-1,	49,	15,	-1,	-1,	-1,	7,	-1,	-1,	41,	19,	-1,	46,	16,	-1,	11,	42,	-1,	-1,	-1,	9,	37,	-1,	-1,	-1,	24,	3,	-1,	33,	-1,	45,	-1,	-1,	-1,	48,	6|
-1,	-1,	36,	-1,	-1,	41,	17,	-1,	-1,	-1,	23,	-1,	34,	45,	46,	38,	-1,	2,	42,	-1,	-1,	32,	-1,	-1,	-1,	10,	-1,	19,	-1,	-1,	-1,	-1,	-1,	-1,	-1,	-1,	-1,	49,	-1,	-1,	-1,	39,	-1,	3,	-1,	24,	44,	-1,	4|
-1,	39,	42,	-1,	-1,	-1,	-1,	26,	29,	-1,	1,	27,	-1,	-1,	5,	-1,	18,	-1,	-1,	8,	19,	9,	3,	28,	41,	36,	35,	47,	-1,	20,	-1,	-1,	-1,	-1,	-1,	-1,	-1,	6,	-1,	30,	23,	24,	40,	13,	17,	-1,	-1,	37,	-1|
19,	9,	40,	27,	-1,	30,	23,	48,	-1,	-1,	10,	-1,	18,	-1,	32,	-1,	-1,	-1,	-1,	24,	28,	-1,	12,	8,	-1,	-1,	-1,	-1,	37,	-1,	43,	-1,	38,	-1,	-1,	25,	-1,	-1,	-1,	-1,	16,	46,	-1,	29,	-1,	-1,	39,	6,	-1|
-1,	-1,	-1,	-1,	-1,	-1,	-1,	20,	-1,	-1,	25,	-1,	-1,	12,	-1,	40,	23,	34,	-1,	39,	-1,	26,	45,	-1,	-1,	-1,	-1,	46,	-1,	-1,	2,	29,	-1,	11,	-1,	32,	41,	19,	-1,	14,	18,	1,	-1,	-1,	7,	21,	28,	8,	-1|
7,	-1,	38,	35,	-1,	47,	45,	30,	-1,	2,	31,	9,	22,	-1,	-1,	44,	13,	14,	-1,	-1,	-1,	-1,	29,	1,	16,	42,	43,	-1,	17,	8,	-1,	33,	-1,	28,	-1,	-1,	36,	-1,	3,	-1,	15,	-1,	-1,	25,	34,	-1,	-1,	-1,	-1|
16,	13,	29,	43,	26,	32,	-1,	-1,	21,	24,	-1,	-1,	33,	46,	-1,	45,	4,	-1,	-1,	-1,	-1,	-1,	-1,	-1,	-1,	-1,	-1,	-1,	27,	25,	44,	42,	-1,	-1,	-1,	28,	9,	-1,	-1,	-1,	-1,	-1,	12,	-1,	47,	-1,	41,	36,	22|
-1,	44,	46,	49,	-1,	-1,	2,	-1,	16,	-1,	-1,	-1,	-1,	39,	-1,	35,	-1,	21,	36,	17,	26,	30,	5,	-1,	37,	-1,	-1,	-1,	-1,	4,	24,	3,	-1,	-1,	41,	-1,	11,	45,	42,	-1,	22,	-1,	-1,	-1,	-1,	15,	43,	33,	-1|
22,	2,	-1,	-1,	-1,	40,	-1,	42,	44,	-1,	-1,	8,	15,	33,	-1,	31,	-1,	16,	23,	-1,	-1,	5,	19,	12,	-1,	27,	-1,	28,	-1,	-1,	1,	32,	-1,	30,	-1,	-1,	-1,	-1,	41,	13,	-1,	-1,	-1,	-1,	3,	43,	-1,	11,	-1|
24,	23,	-1,	3,	-1,	33,	-1,	12,	36,	45,	-1,	-1,	-1,	6,	41,	-1,	11,	-1,	-1,	37,	2,	-1,	-1,	39,	-1,	-1,	26,	-1,	7,	-1,	21,	22,	-1,	38,	-1,	15,	-1,	-1,	-1,	-1,	-1,	30,	-1,	-1,	-1,	-1,	-1,	-1,	-1|
17,	11,	-1,	-1,	-1,	-1,	-1,	1,	-1,	-1,	27,	48,	-1,	-1,	-1,	49,	26,	-1,	-1,	43,	30,	-1,	4,	-1,	-1,	32,	9,	24,	-1,	-1,	34,	14,	44,	-1,	12,	-1,	19,	23,	37,	7,	-1,	42,	-1,	-1,	18,	-1,	-1,	5,	-1|
-1,	-1,	-1,	-1,	-1,	38,	-1,	17,	-1,	-1,	34,	-1,	-1,	-1,	21,	48,	-1,	-1,	-1,	-1,	-1,	36,	8,	44,	42,	37,	3,	14,	-1,	19,	18,	-1,	24,	-1,	4,	40,	-1,	-1,	-1,	46,	-1,	-1,	-1,	10,	20,	-1,	45,	2,	23|
46,	-1,	12,	30,	36,	-1,	44,	-1,	-1,	-1,	37,	-1,	29,	-1,	20,	-1,	-1,	18,	32,	40,	10,	-1,	21,	-1,	31,	-1,	-1,	-1,	-1,	41,	-1,	-1,	-1,	-1,	5,	33,	34,	-1,	26,	38,	-1,	-1,	-1,	17,	-1,	27,	-1,	-1,	49|
43,	-1,	-1,	37,	-1,	34,	-1,	23,	-1,	-1,	-1,	32,	24,	-1,	1,	4,	-1,	-1,	17,	46,	36,	33,	2,	38,	35,	-1,	-1,	-1,	31,	-1,	45,	27,	13,	3,	28,	-1,	-1,	16,	-1,	-1,	10,	-1,	21,	-1,	12,	48,	-1,	26,	-1|
42,	4,	26,	-1,	-1,	48,	8,	-1,	-1,	5,	-1,	2,	-1,	-1,	-1,	28,	-1,	-1,	44,	-1,	22,	25,	15,	30,	-1,	23,	-1,	-1,	46,	39,	-1,	37,	-1,	17,	29,	-1,	27,	21,	36,	12,	24,	-1,	34,	-1,	19,	-1,	1,	-1,	-1|
1,	-1,	44,	-1,	-1,	-1,	-1,	-1,	48,	30,	-1,	46,	26,	-1,	-1,	43,	-1,	8,	-1,	41,	37,	-1,	-1,	-1,	9,	31,	-1,	13,	-1,	11,	3,	-1,	-1,	7,	-1,	23,	-1,	4,	12,	27,	38,	29,	-1,	28,	36,	40,	-1,	-1,	34|
-1,	-1,	-1,	24,	-1,	-1,	13,	41,	28,	-1,	-1,	-1,	-1,	11,	26,	-1,	17,	-1,	-1,	-1,	9,	18,	-1,	-1,	43,	20,	-1,	-1,	5,	49,	37,	30,	1,	-1,	-1,	46,	-1,	36,	-1,	31,	34,	-1,	-1,	14,	-1,	6,	27,	38,	-1|
36,	30,	-1,	25,	-1,	23,	-1,	-1,	15,	-1,	-1,	6,	49,	-1,	-1,	34,	-1,	-1,	1,	32,	4,	37,	-1,	46,	-1,	41,	-1,	-1,	28,	31,	-1,	8,	42,	12,	-1,	-1,	-1,	35,	-1,	-1,	14,	5,	-1,	-1,	33,	9,	10,	24,	-1|
-1,	-1,	-1,	-1,	-1,	17,	-1,	-1,	-1,	18,	-1,	-1,	-1,	40,	13,	2,	31,	30,	-1,	-1,	-1,	-1,	32,	45,	8,	3,	10,	27,	34,	15,	38,	-1,	-1,	-1,	-1,	-1,	-1,	39,	-1,	-1,	21,	9,	-1,	11,	26,	-1,	-1,	4,	1|
38,	29,	-1,	12,	-1,	-1,	31,	-1,	1,	13,	-1,	43,	-1,	-1,	-1,	-1,	-1,	28,	-1,	36,	-1,	-1,	-1,	11,	-1,	2,	21,	26,	-1,	-1,	32,	-1,	27,	-1,	-1,	41,	-1,	8,	20,	10,	-1,	15,	-1,	7,	49,	17,	16,	30,	-1|
-1,	28,	34,	11,	15,	-1,	-1,	-1,	32,	23,	12,	-1,	-1,	9,	-1,	-1,	-1,	-1,	19,	-1,	21,	17,	-1,	36,	-1,	-1,	30,	-1,	-1,	33,	10,	39,	-1,	18,	43,	1,	47,	-1,	13,	-1,	-1,	6,	44,	41,	46,	-1,	22,	45,	29|
20,	49,	-1,	-1,	42,	-1,	35,	-1,	-1,	16,	17,	24,	-1,	36,	-1,	10,	7,	-1,	-1,	-1,	-1,	-1,	40,	22,	14,	-1,	19,	-1,	29,	23,	26,	9,	48,	6,	21,	-1,	30,	32,	45,	-1,	37,	3,	-1,	-1,	-1,	39,	-1,	-1,	-1|
-1,	1,	-1,	-1,	6,	20,	22,	-1,	39,	-1,	-1,	-1,	41,	5,	-1,	-1,	42,	-1,	-1,	-1,	14,	-1,	31,	43,	25,	18,	-1,	21,	40,	-1,	8,	28,	-1,	37,	-1,	24,	12,	9,	10,	32,	44,	19,	-1,	-1,	-1,	-1,	-1,	-1,	-1|
-1,	-1,	5,	10,	-1,	31,	33,	-1,	2,	32,	-1,	-1,	-1,	26,	-1,	7,	49,	-1,	27,	-1,	-1,	28,	22,	-1,	-1,	8,	-1,	-1,	-1,	-1,	-1,	47,	19,	-1,	6,	-1,	-1,	46,	-1,	-1,	-1,	34,	-1,	-1,	-1,	13,	-1,	43,	14|
-1,	40,	4,	-1,	30,	-1,	-1,	34,	6,	-1,	-1,	21,	46,	-1,	-1,	47,	-1,	24,	18,	23,	5,	44,	17,	-1,	-1,	-1,	-1,	41,	-1,	3,	11,	36,	20,	-1,	38,	43,	-1,	22,	35,	-1,	8,	48,	10,	-1,	-1,	-1,	33,	9,	39|
-1,	-1,	-1,	-1,	34,	-1,	-1,	-1,	19,	38,	-1,	29,	-1,	-1,	-1,	-1,	-1,	-1,	22,	-1,	-1,	35,	13,	37,	33,	16,	-1,	42,	24,	9,	-1,	10,	32,	21,	-1,	-1,	5,	-1,	28,	6,	-1,	47,	-1,	46,	-1,	7,	15,	-1,	25|
-1,	41,	11,	-1,	-1,	-1,	-1,	-1,	7,	-1,	14,	-1,	37,	-1,	35,	6,	21,	10,	-1,	-1,	-1,	-1,	-1,	26,	-1,	-1,	12,	34,	-1,	-1,	-1,	-1,	49,	43,	15,	2,	13,	27,	18,	36,	33,	-1,	24,	48,	-1,	-1,	-1,	28,	31|
2,	-1,	14,	-1,	-1,	-1,	-1,	3,	-1,	-1,	24,	-1,	28,	35,	17,	32,	-1,	31,	-1,	33,	15,	10,	-1,	27,	-1,	9,	-1,	-1,	-1,	7,	48,	5,	-1,	-1,	13,	39,	42,	-1,	4,	-1,	-1,	37,	8,	-1,	6,	30,	40,	-1,	-1|
9,	48,	-1,	-1,	-1,	-1,	49,	27,	-1,	-1,	-1,	-1,	-1,	-1,	-1,	-1,	-1,	40,	-1,	-1,	-1,	24,	-1,	-1,	7,	-1,	-1,	3,	-1,	35,	17,	1,	2,	29,	-1,	-1,	15,	-1,	25,	45,	-1,	31,	16,	36,	32,	23,	-1,	-1,	-1|
-1,	43,	-1,	5,	3,	24,	20,	16,	45,	34,	18,	25,	-1,	-1,	-1,	11,	-1,	1,	-1,	38,	6,	31,	26,	9,	28,	-1,	41,	-1,	44,	2,	40,	-1,	29,	-1,	-1,	42,	-1,	37,	21,	33,	-1,	-1,	17,	-1,	13,	-1,	14,	49,	48|
-1,	-1,	25,	16,	-1,	46,	30,	-1,	-1,	-1,	-1,	40,	-1,	-1,	-1,	-1,	-1,	-1,	28,	44,	-1,	27,	33,	29,	2,	24,	-1,	-1,	38,	-1,	-1,	-1,	-1,	41,	45,	13,	-1,	43,	-1,	-1,	26,	12,	-1,	6,	35,	-1,	4,	34,	20|
10,	32,	-1,	21,	-1,	29,	-1,	33,	26,	14,	-1,	-1,	-1,	1,	-1,	-1,	19,	-1,	41,	45,	-1,	-1,	-1,	34,	-1,	-1,	18,	35,	-1,	27,	-1,	12,	36,	4,	8,	30,	25,	-1,	-1,	24,	-1,	11,	-1,	38,	-1,	28,	-1,	31,	7|
6,	34,	-1,	13,	-1,	-1,	7,	31,	30,	-1,	-1,	20,	-1,	-1,	40,	25,	39,	12,	-1,	-1,	-1,	38,	37,	-1,	47,	-1,	17,	-1,	-1,	18,	-1,	11,	-1,	-1,	-1,	44,	-1,	-1,	16,	-1,	46,	-1,	41,	-1,	-1,	-1,	32,	-1,	-1|
11,	-1,	17,	38,	-1,	36,	28,	46,	5,	-1,	-1,	22,	13,	49,	18,	-1,	-1,	29,	24,	-1,	34,	40,	23,	-1,	-1,	-1,	7,	-1,	-1,	37,	-1,	16,	-1,	-1,	48,	8,	4,	-1,	39,	-1,	35,	-1,	-1,	-1,	27,	-1,	-1,	42,	12|
-1,	-1,	-1,	-1,	27,	-1,	-1,	-1,	-1,	41,	2,	-1,	12,	-1,	10,	-1,	-1,	-1,	43,	-1,	35,	-1,	46,	32,	45,	48,	20,	16,	-1,	-1,	-1,	-1,	7,	-1,	49,	-1,	-1,	47,	6,	34,	-1,	38,	33,	40,	-1,	-1,	-1,	-1,	-1|
-1,	33,	48,	-1,	9,	35,	-1,	24,	38,	29,	4,	28,	-1,	-1,	-1,	46,	-1,	-1,	7,	-1,	49,	39,	14,	21,	19,	-1,	-1,	12,	-1,	5,	-1,	26,	-1,	10,	1,	-1,	32,	-1,	-1,	-1,	17,	-1,	-1,	-1,	30,	25,	11,	16,	15|];
