sudoku-ls/benchmarks_LEQ/INST_49x49/50/inst49x49_50_10.txt
7
1
28	-1	20	-1	-1	42	-1	49	33	10	11	-1	1	-1	-1	36	12	-1	21	3	40	-1	18	14	27	29	34	-1	-1	-1	19	-1	26	32	2	-1	46	-1	38	39	-1	35	22	-1	8	47	-1	23	43
47	22	33	44	43	-1	-1	-1	40	39	16	-1	32	3	-1	1	-1	-1	-1	20	-1	13	10	-1	-1	12	37	2	-1	-1	-1	-1	-1	-1	-1	27	-1	-1	-1	4	29	-1	36	-1	48	31	35	-1	-1
-1	19	-1	-1	-1	-1	-1	43	25	-1	-1	36	4	-1	29	23	41	32	33	-1	-1	-1	7	24	-1	-1	-1	31	1	38	-1	18	37	-1	11	34	-1	-1	-1	42	-1	26	-1	-1	39	46	5	44	-1
21	-1	1	40	-1	-1	-1	13	-1	-1	29	7	-1	-1	-1	30	-1	49	26	16	38	47	43	-1	-1	25	-1	-1	8	-1	-1	-1	-1	-1	-1	12	31	-1	9	-1	32	-1	-1	-1	28	34	37	-1	-1
-1	-1	-1	-1	-1	-1	-1	-1	-1	-1	41	38	-1	-1	-1	22	15	-1	2	-1	42	-1	-1	-1	-1	35	-1	5	-1	-1	39	-1	16	-1	40	-1	-1	7	14	48	-1	-1	27	33	29	-1	3	-1	11
-1	17	-1	-1	-1	-1	-1	-1	24	-1	26	-1	27	47	-1	-1	-1	-1	-1	5	-1	-1	28	-1	-1	6	38	33	3	21	14	13	22	-1	-1	19	8	-1	-1	1	43	-1	7	15	-1	16	-1	-1	-1
30	37	24	-1	25	-1	38	-1	-1	44	5	-1	-1	-1	47	14	27	-1	48	-1	-1	-1	39	-1	-1	-1	4	-1	-1	-1	29	-1	-1	-1	-1	-1	40	33	-1	16	13	18	20	-1	-1	-1	-1	12	-1
23	-1	-1	22	-1	45	24	-1	-1	-1	39	-1	-1	-1	9	33	47	-1	-1	-1	41	-1	-1	18	20	30	-1	15	4	29	-1	48	6	44	31	-1	2	-1	-1	-1	-1	43	11	-1	25	3	12	10	16
-1	12	-1	-1	17	1	-1	8	14	7	6	41	-1	31	2	27	16	38	45	-1	-1	11	36	-1	-1	26	25	37	-1	43	-1	-1	10	-1	-1	-1	-1	28	-1	-1	-1	22	-1	-1	42	44	23	-1	-1
3	-1	7	-1	41	-1	43	-1	-1	37	-1	-1	16	-1	31	-1	48	-1	-1	-1	32	-1	-1	10	12	-1	-1	-1	-1	28	25	23	-1	-1	18	35	-1	-1	-1	-1	36	-1	26	-1	38	-1	-1	17	-1
-1	-1	2	31	-1	14	32	25	9	-1	21	-1	44	34	36	-1	10	-1	-1	22	18	43	-1	7	17	40	13	23	45	-1	-1	-1	30	-1	-1	-1	-1	12	-1	-1	6	-1	-1	4	-1	41	-1	-1	-1
-1	-1	19	15	-1	16	6	-1	-1	-1	36	10	-1	-1	-1	17	3	-1	14	-1	-1	48	-1	31	-1	21	-1	-1	-1	-1	7	-1	39	-1	-1	-1	20	-1	-1	-1	27	-1	-1	-1	40	2	34	-1	-1
-1	20	-1	-1	-1	18	9	15	27	-1	46	23	48	32	-1	-1	-1	39	6	19	1	-1	35	-1	-1	-1	-1	-1	-1	34	12	-1	14	2	-1	-1	-1	-1	47	-1	25	16	30	22	-1	8	31	7	-1
39	25	-1	36	5	10	-1	-1	12	1	35	-1	2	43	49	-1	-1	44	30	7	13	8	-1	-1	-1	46	16	-1	-1	42	-1	38	-1	-1	37	26	23	34	-1	-1	31	33	-1	45	-1	-1	18	-1	-1
-1	-1	-1	33	31	-1	-1	28	47	40	-1	-1	-1	45	46	38	1	2	42	-1	-1	32	25	-1	-1	10	-1	-1	-1	-1	-1	-1	-1	-1	-1	-1	37	-1	43	35	12	39	-1	-1	16	24	-1	20	4
25	39	42	4	22	-1	14	-1	-1	15	1	27	11	-1	-1	-1	18	-1	-1	-1	19	9	-1	-1	41	36	-1	-1	-1	20	-1	-1	-1	45	32	-1	44	6	-1	30	-1	24	40	13	17	49	-1	37	2
19	-1	40	27	11	30	23	-1	-1	36	-1	-1	-1	-1	32	-1	33	20	-1	-1	-1	-1	-1	-1	-1	-1	2	-1	37	22	-1	35	-1	-1	-1	25	26	-1	-1	17	-1	46	31	29	14	-1	39	-1	-1
-1	10	3	-1	-1	-1	-1	20	-1	-1	25	44	-1	-1	-1	40	-1	-1	-1	39	-1	-1	-1	-1	-1	4	-1	-1	-1	-1	-1	29	-1	11	36	-1	-1	19	27	-1	18	-1	38	35	7	21	-1	8	30
-1	-1	-1	35	-1	-1	45	30	-1	-1	-1	9	-1	41	48	44	-1	14	-1	49	-1	23	-1	1	-1	42	43	-1	17	8	6	33	12	-1	39	5	36	-1	-1	40	-1	4	-1	-1	34	-1	-1	-1	32
-1	-1	29	-1	-1	32	-1	35	21	-1	-1	14	33	-1	-1	45	4	6	-1	15	7	-1	-1	20	-1	-1	-1	-1	-1	25	44	-1	40	19	-1	28	-1	10	-1	8	-1	-1	12	-1	-1	-1	41	36	-1
34	44	-1	-1	20	28	2	-1	16	6	-1	-1	38	39	12	35	25	21	36	-1	26	30	5	40	37	14	-1	-1	-1	-1	-1	-1	-1	-1	41	29	-1	45	42	47	-1	7	-1	-1	-1	-1	-1	33	27
22	-1	6	9	10	-1	-1	-1	-1	-1	49	-1	15	33	-1	31	-1	-1	23	14	39	5	19	-1	-1	27	-1	28	-1	47	-1	-1	25	30	-1	17	-1	-1	41	13	45	-1	-1	37	3	-1	7	11	-1
24	23	49	-1	-1	-1	19	-1	36	45	28	-1	-1	6	-1	42	11	-1	-1	-1	-1	-1	34	39	10	17	-1	-1	-1	-1	-1	-1	-1	38	9	-1	-1	5	-1	-1	-1	-1	-1	-1	-1	14	-1	-1	40
17	11	35	29	-1	25	15	1	31	-1	27	-1	-1	-1	8	49	26	45	-1	43	-1	-1	4	-1	-1	-1	9	-1	2	10	34	14	44	-1	-1	-1	19	23	-1	-1	-1	-1	-1	-1	-1	33	-1	-1	-1
41	-1	-1	32	28	-1	27	-1	-1	-1	-1	-1	9	30	21	-1	5	7	-1	-1	-1	36	-1	-1	42	-1	-1	14	33	19	18	43	-1	16	-1	40	-1	11	-1	46	-1	49	15	-1	20	29	-1	-1	-1
46	-1	-1	30	-1	-1	-1	11	4	-1	37	39	-1	14	-1	-1	-1	18	-1	40	-1	7	-1	-1	-1	-1	1	-1	-1	-1	23	-1	-1	42	5	-1	34	48	-1	-1	2	-1	-1	17	-1	27	8	22	49
43	5	-1	37	7	-1	-1	23	-1	-1	20	-1	-1	-1	1	-1	29	-1	-1	-1	36	-1	2	-1	35	-1	49	-1	31	-1	45	27	-1	3	-1	-1	6	-1	-1	-1	10	-1	-1	-1	12	48	47	-1	42
-1	4	26	-1	14	-1	8	-1	10	5	-1	-1	7	18	33	28	9	-1	44	47	-1	25	-1	-1	13	23	-1	6	46	-1	49	-1	11	17	29	-1	-1	-1	36	-1	-1	32	34	-1	19	-1	1	-1	35
-1	6	-1	39	-1	-1	18	-1	48	30	19	46	-1	21	24	43	14	-1	47	-1	-1	-1	-1	33	-1	-1	5	13	-1	-1	3	-1	35	7	-1	-1	16	-1	12	27	38	29	-1	-1	36	40	25	-1	-1
-1	3	10	24	33	-1	13	-1	-1	8	-1	-1	-1	-1	26	12	-1	22	15	-1	9	-1	16	-1	-1	20	-1	-1	-1	49	-1	30	-1	-1	44	46	48	36	40	31	34	25	-1	14	2	6	27	-1	-1
36	30	21	-1	40	23	48	2	-1	27	-1	-1	49	-1	16	34	-1	11	-1	32	-1	37	-1	-1	39	41	-1	29	28	-1	-1	-1	-1	12	-1	18	17	35	7	26	14	5	43	-1	33	9	-1	24	-1
5	7	43	14	-1	-1	-1	-1	35	18	33	37	20	-1	13	-1	-1	30	-1	42	-1	-1	-1	45	8	-1	10	-1	34	15	38	46	-1	-1	-1	-1	24	-1	44	28	21	9	48	11	26	12	19	-1	1
38	29	9	12	37	-1	31	47	-1	13	42	-1	-1	44	-1	-1	6	-1	25	-1	46	34	48	-1	23	2	21	26	22	24	32	-1	27	40	14	41	33	8	20	-1	-1	15	35	7	-1	-1	16	-1	-1
27	-1	-1	-1	-1	-1	-1	-1	32	-1	12	31	5	-1	3	20	40	-1	-1	-1	21	-1	-1	-1	-1	-1	-1	-1	16	33	10	-1	-1	-1	43	1	47	-1	13	2	-1	6	44	41	46	-1	22	-1	-1
-1	49	41	46	42	2	35	-1	-1	-1	-1	24	25	-1	-1	10	7	33	-1	18	44	-1	40	-1	-1	-1	19	1	-1	-1	26	-1	-1	-1	-1	-1	30	-1	45	-1	-1	3	47	8	31	-1	-1	15	5
15	1	-1	7	6	-1	22	36	39	48	-1	-1	-1	5	38	-1	42	46	-1	-1	-1	29	-1	-1	-1	-1	-1	21	40	45	-1	28	33	-1	-1	24	12	-1	-1	-1	44	-1	-1	-1	11	-1	17	3	47
35	-1	5	-1	24	31	-1	-1	-1	32	-1	-1	30	26	25	-1	-1	-1	27	1	3	28	22	-1	-1	-1	48	40	12	44	4	-1	19	39	-1	-1	21	-1	-1	23	-1	34	29	-1	-1	-1	-1	-1	14
13	-1	4	-1	30	-1	25	-1	6	-1	15	21	46	-1	-1	47	-1	-1	-1	-1	-1	-1	17	-1	49	19	32	41	14	3	-1	36	20	-1	38	43	7	-1	35	-1	-1	-1	-1	1	-1	26	-1	9	-1
-1	-1	8	17	-1	43	-1	-1	-1	38	40	-1	31	-1	11	-1	-1	-1	-1	48	45	35	13	37	33	16	-1	-1	24	-1	-1	10	32	-1	30	20	5	-1	-1	-1	-1	-1	49	-1	-1	7	-1	27	25
-1	-1	-1	19	32	39	3	-1	7	-1	14	-1	37	17	35	-1	21	10	29	-1	8	4	47	26	30	-1	-1	-1	-1	-1	16	-1	49	43	-1	-1	-1	27	-1	-1	33	40	24	-1	-1	-1	42	-1	-1
2	36	-1	23	-1	21	47	-1	43	25	-1	-1	-1	-1	-1	32	34	31	16	-1	15	10	20	27	1	-1	46	-1	26	7	-1	5	-1	-1	13	39	-1	-1	-1	49	41	-1	-1	-1	-1	30	40	19	44
9	-1	28	-1	46	-1	-1	27	22	4	-1	33	-1	-1	-1	13	-1	40	20	-1	-1	-1	-1	-1	-1	39	6	3	42	35	17	1	2	29	-1	14	15	26	-1	-1	30	31	16	-1	32	23	-1	21	-1
-1	-1	-1	5	3	-1	20	-1	-1	-1	18	25	-1	-1	4	-1	-1	1	8	38	-1	-1	26	9	-1	15	-1	-1	-1	2	-1	-1	29	46	35	-1	22	-1	-1	33	7	23	17	-1	-1	-1	14	49	-1
31	15	-1	-1	-1	46	30	-1	3	-1	-1	40	-1	10	14	37	-1	-1	-1	44	-1	-1	33	-1	2	-1	11	-1	38	32	-1	17	-1	-1	45	13	-1	43	-1	5	-1	-1	-1	-1	35	-1	-1	34	20
-1	-1	-1	21	-1	29	-1	33	-1	-1	44	17	6	1	-1	3	19	-1	41	45	-1	22	42	-1	5	-1	18	35	-1	-1	-1	-1	36	4	-1	-1	-1	-1	-1	24	-1	-1	-1	38	-1	28	-1	-1	-1
-1	34	45	-1	19	26	7	31	30	43	-1	-1	35	-1	-1	25	-1	-1	-1	-1	-1	38	-1	4	47	-1	17	-1	-1	18	-1	-1	3	-1	-1	-1	-1	-1	16	-1	-1	-1	41	-1	-1	-1	32	-1	-1
-1	14	17	-1	-1	-1	28	46	-1	47	32	22	-1	-1	-1	-1	-1	-1	24	31	-1	-1	-1	-1	-1	-1	7	-1	-1	37	15	16	43	33	-1	-1	-1	41	39	19	-1	-1	-1	26	27	-1	-1	42	12
4	8	-1	-1	-1	-1	42	-1	-1	-1	2	-1	-1	19	-1	9	-1	17	-1	-1	-1	3	-1	-1	-1	48	20	16	25	13	31	21	-1	14	49	36	18	-1	6	-1	-1	-1	33	-1	23	5	24	-1	-1
40	33	-1	47	-1	-1	-1	-1	38	29	4	-1	-1	-1	-1	-1	-1	13	7	27	49	39	14	21	-1	43	8	12	-1	5	-1	26	34	-1	-1	3	32	31	2	-1	17	45	18	44	-1	-1	-1	-1	-1
49 
7 45 12 30
32 16 23 21
4 6 17 19
30 28 9 36
11 31 17 12
31 12 43 21
24 40 16 14
41 43 12 34
39 30 36 38
21 45 45 1
41 12 40 3
3 5 18 14
13 3 25 9
27 42 10 38
19 41 48 12
24 5 27 38
8 9 41 15
22 38 20 25
4 44 5 8
47 17 31 44
14 45 9 20
12 35 20 49
4 33 36 27
18 25 26 17
6 38 19 44
19 47 11 30
45 30 38 6
30 9 14 17
22 27 10 47
28 24 24 21
5 3 31 30
12 29 7 46
41 20 4 31
39 5 29 49
48 21 23 19
46 46 26 5
38 17 35 41
40 26 27 24
9 48 38 49
47 22 14 7
39 31 43 27
31 33 10 18
33 12 7 29
1 38 5 32
12 8 33 32
6 17 46 41
39 42 31 27
44 21 9 4
47 14 7 32
